nfreight_trains = 8;																		
freight_trains = [|			1	,	14	|	2	,	13	|	3	,	14	|	4	,	15	|
			1	,	13	|	2	,	14	|	3	,	15	|	4	,	12	|];
			
%speed_factor = [1,2,3,1,2,3,1,2];
speed_factor = [1,1,1,1,1,1,1,1];